param n := 120;
param c := 10000
param : V : p w :=
   0	  43	 432
   1	  57	 265
   2	   8	 303
   3	  95	 365
   4	  52	 282
   5	  24	 353
   6	  84	 448
   7	  54	 260
   8	  46	 292
   9	  28	 496
  10	  97	 250
  11	  99	 254
  12	   4	 363
  13	  54	 265
  14	  65	 372
  15	  19	 372
  16	  71	 298
  17	  26	 330
  18	  97	 491
  19	   9	 253
  20	  30	 256
  21	  53	 429
  22	  16	 260
  23	  65	 311
  24	  71	 392
  25	  68	 268
  26	  75	 340
  27	  84	 433
  28	  77	 251
  29	  18	 316
  30	  62	 406
  31	  73	 259
  32	  38	 335
  33	  83	 365
  34	  60	 252
  35	  68	 383
  36	  60	 393
  37	  84	 271
  38	  78	 336
  39	  38	 380
  40	  14	 303
  41	  53	 317
  42	  92	 381
  43	  40	 295
  44	  59	 324
  45	   3	 424
  46	  55	 268
  47	  57	 308
  48	  77	 498
  49	  88	 250
  50	   4	 252
  51	  12	 414
  52	  28	 255
  53	  79	 331
  54	  55	 421
  55	  53	 268
  56	  56	 311
  57	  43	 491
  58	  76	 250
  59	  59	 259
  60	  91	 493
  61	  38	 250
  62	  94	 257
  63	  53	 368
  64	  53	 265
  65	  19	 367
  66	   4	 408
  67	  79	 289
  68	  19	 303
  69	  33	 444
  70	  55	 262
  71	  21	 294
  72	  61	 403
  73	  41	 259
  74	  64	 338
  75	   1	 485
  76	  95	 253
  77	  47	 262
  78	  72	 465
  79	   9	 260
  80	  85	 275
  81	  85	 421
  82	  92	 254
  83	  44	 325
  84	  99	 351
  85	  86	 296
  86	  36	 353
  87	  59	 396
  88	  66	 276
  89	  65	 328
  90	  84	 389
  91	  89	 295
  92	  37	 316
  93	  87	 483
  94	  30	 251
  95	  62	 266
  96	  41	 398
  97	   3	 289
  98	  22	 313
  99	  61	 363
 100	  57	 308
 101	  15	 329
 102	   9	 399
 103	  66	 279
 104	  95	 322
 105	  97	 389
 106	   7	 283
 107	   3	 328
 108	   9	 402
 109	  20	 251
 110	  76	 347
 111	  61	 357
 112	  16	 280
 113	  40	 363
 114	  90	 427
 115	  29	 277
 116	  13	 296
 117	  97	 375
 118	  34	 259
 119	  86	 366
;

set E :=
   0	   1
   0	   2
   0	   3
   0	   4
   0	   7
   0	   9
   0	  16
   0	  17
   0	  18
   0	  22
   0	  24
   0	  27
   0	  29
   0	  30
   0	  31
   0	  32
   0	  33
   0	  36
   0	  37
   0	  38
   0	  40
   0	  41
   0	  42
   0	  43
   0	  47
   0	  48
   0	  55
   0	  60
   0	  61
   0	  62
   0	  64
   0	  68
   0	  71
   0	  74
   0	  75
   0	  77
   0	  80
   0	  82
   0	  83
   0	  85
   0	  86
   0	  89
   0	  90
   0	  95
   0	  96
   0	  97
   0	  98
   0	 107
   0	 111
   0	 114
   0	 115
   1	  16
   1	  19
   1	  22
   1	  24
   1	  25
   1	  27
   1	  28
   1	  29
   1	  35
   1	  42
   1	  48
   1	  51
   1	  53
   1	  58
   1	  60
   1	  62
   1	  64
   1	  65
   1	  67
   1	  68
   1	  69
   1	  71
   1	  72
   1	  77
   1	  79
   1	  80
   1	  81
   1	  85
   1	  89
   1	  90
   1	  95
   1	  96
   1	  97
   1	 100
   1	 103
   1	 104
   1	 106
   1	 109
   1	 110
   1	 111
   1	 112
   1	 115
   2	   3
   2	   5
   2	  18
   2	  19
   2	  25
   2	  28
   2	  29
   2	  36
   2	  37
   2	  38
   2	  40
   2	  42
   2	  45
   2	  56
   2	  57
   2	  58
   2	  62
   2	  66
   2	  67
   2	  68
   2	  70
   2	  72
   2	  73
   2	  76
   2	  79
   2	  80
   2	  82
   2	  83
   2	  84
   2	  88
   2	  93
   2	  94
   2	 105
   2	 106
   2	 108
   2	 112
   2	 114
   2	 116
   2	 117
   2	 118
   3	   4
   3	   9
   3	  10
   3	  12
   3	  13
   3	  18
   3	  20
   3	  24
   3	  25
   3	  26
   3	  28
   3	  30
   3	  31
   3	  33
   3	  34
   3	  36
   3	  37
   3	  39
   3	  40
   3	  43
   3	  48
   3	  51
   3	  53
   3	  54
   3	  58
   3	  59
   3	  61
   3	  63
   3	  66
   3	  69
   3	  71
   3	  73
   3	  74
   3	  77
   3	  80
   3	  84
   3	  87
   3	  88
   3	  90
   3	  92
   3	  94
   3	  95
   3	  99
   3	 100
   3	 101
   3	 104
   3	 118
   4	   5
   4	   8
   4	  10
   4	  16
   4	  17
   4	  18
   4	  25
   4	  28
   4	  29
   4	  30
   4	  35
   4	  41
   4	  42
   4	  46
   4	  47
   4	  50
   4	  51
   4	  53
   4	  54
   4	  57
   4	  59
   4	  63
   4	  64
   4	  71
   4	  74
   4	  75
   4	  76
   4	  79
   4	  83
   4	  84
   4	  85
   4	  86
   4	  88
   4	  89
   4	  90
   4	  94
   4	  95
   4	  97
   4	 107
   4	 109
   4	 114
   5	   7
   5	  18
   5	  19
   5	  20
   5	  23
   5	  25
   5	  28
   5	  30
   5	  31
   5	  33
   5	  35
   5	  36
   5	  38
   5	  41
   5	  42
   5	  45
   5	  46
   5	  47
   5	  48
   5	  49
   5	  52
   5	  56
   5	  59
   5	  60
   5	  61
   5	  63
   5	  64
   5	  65
   5	  66
   5	  69
   5	  72
   5	  73
   5	  75
   5	  76
   5	  78
   5	  80
   5	  83
   5	  85
   5	  86
   5	  88
   5	  89
   5	  94
   5	  96
   5	  99
   5	 101
   5	 103
   5	 104
   5	 106
   5	 108
   5	 114
   5	 118
   6	   9
   6	  10
   6	  12
   6	  16
   6	  21
   6	  22
   6	  28
   6	  32
   6	  33
   6	  34
   6	  36
   6	  41
   6	  44
   6	  45
   6	  46
   6	  47
   6	  50
   6	  52
   6	  55
   6	  56
   6	  61
   6	  62
   6	  63
   6	  66
   6	  68
   6	  69
   6	  71
   6	  72
   6	  73
   6	  74
   6	  79
   6	  80
   6	  82
   6	  85
   6	  89
   6	  94
   6	  95
   6	  99
   6	 105
   6	 111
   6	 114
   6	 118
   6	 119
   7	   9
   7	  10
   7	  11
   7	  13
   7	  15
   7	  18
   7	  19
   7	  26
   7	  27
   7	  35
   7	  37
   7	  38
   7	  39
   7	  44
   7	  48
   7	  49
   7	  51
   7	  52
   7	  55
   7	  58
   7	  62
   7	  64
   7	  66
   7	  67
   7	  68
   7	  70
   7	  74
   7	  75
   7	  77
   7	  78
   7	  79
   7	  80
   7	  81
   7	  84
   7	  85
   7	  89
   7	  92
   7	  93
   7	  99
   7	 102
   7	 103
   7	 106
   7	 107
   7	 110
   7	 111
   7	 113
   7	 114
   7	 115
   7	 116
   8	  10
   8	  16
   8	  17
   8	  19
   8	  20
   8	  22
   8	  23
   8	  24
   8	  25
   8	  27
   8	  28
   8	  30
   8	  31
   8	  32
   8	  38
   8	  39
   8	  41
   8	  42
   8	  47
   8	  49
   8	  50
   8	  52
   8	  54
   8	  58
   8	  60
   8	  61
   8	  65
   8	  67
   8	  69
   8	  72
   8	  74
   8	  76
   8	  77
   8	  78
   8	  79
   8	  82
   8	  85
   8	  86
   8	  90
   8	  92
   8	  93
   8	  94
   8	  98
   8	 105
   8	 108
   8	 111
   8	 113
   8	 114
   8	 115
   8	 117
   9	  10
   9	  11
   9	  16
   9	  17
   9	  18
   9	  19
   9	  20
   9	  21
   9	  23
   9	  26
   9	  28
   9	  29
   9	  30
   9	  32
   9	  37
   9	  38
   9	  39
   9	  40
   9	  41
   9	  42
   9	  44
   9	  48
   9	  49
   9	  51
   9	  52
   9	  55
   9	  57
   9	  58
   9	  59
   9	  62
   9	  64
   9	  65
   9	  66
   9	  71
   9	  72
   9	  73
   9	  75
   9	  81
   9	  82
   9	  87
   9	  88
   9	  89
   9	  91
   9	  92
   9	  94
   9	  98
   9	  99
   9	 100
   9	 101
   9	 107
   9	 108
   9	 113
   9	 116
   9	 118
  10	  11
  10	  13
  10	  18
  10	  21
  10	  23
  10	  26
  10	  30
  10	  31
  10	  33
  10	  35
  10	  36
  10	  42
  10	  46
  10	  48
  10	  50
  10	  51
  10	  55
  10	  57
  10	  58
  10	  59
  10	  60
  10	  61
  10	  67
  10	  68
  10	  69
  10	  78
  10	  79
  10	  80
  10	  82
  10	  91
  10	  92
  10	  93
  10	  95
  10	  96
  10	  98
  10	 103
  10	 105
  10	 106
  10	 107
  10	 109
  10	 110
  10	 112
  10	 114
  10	 115
  10	 116
  10	 118
  11	  16
  11	  17
  11	  18
  11	  19
  11	  22
  11	  24
  11	  26
  11	  27
  11	  29
  11	  31
  11	  35
  11	  46
  11	  49
  11	  50
  11	  52
  11	  56
  11	  57
  11	  59
  11	  76
  11	  80
  11	  81
  11	  85
  11	  90
  11	  97
  11	 103
  11	 104
  11	 105
  11	 106
  11	 117
  11	 119
  12	  16
  12	  21
  12	  22
  12	  26
  12	  27
  12	  30
  12	  31
  12	  37
  12	  47
  12	  48
  12	  52
  12	  57
  12	  59
  12	  60
  12	  63
  12	  67
  12	  68
  12	  70
  12	  73
  12	  76
  12	  79
  12	  82
  12	  83
  12	  85
  12	  86
  12	  89
  12	  94
  12	  99
  12	 103
  12	 106
  12	 109
  12	 112
  12	 115
  12	 117
  12	 118
  13	  18
  13	  20
  13	  21
  13	  22
  13	  25
  13	  29
  13	  30
  13	  33
  13	  34
  13	  35
  13	  36
  13	  38
  13	  42
  13	  47
  13	  48
  13	  49
  13	  51
  13	  52
  13	  60
  13	  62
  13	  70
  13	  71
  13	  81
  13	  82
  13	  84
  13	  87
  13	  88
  13	  98
  13	  99
  13	 103
  13	 105
  13	 106
  13	 109
  13	 111
  13	 115
  13	 116
  13	 118
  14	  15
  14	  17
  14	  19
  14	  21
  14	  22
  14	  25
  14	  28
  14	  29
  14	  35
  14	  39
  14	  41
  14	  43
  14	  47
  14	  48
  14	  51
  14	  54
  14	  56
  14	  57
  14	  62
  14	  64
  14	  66
  14	  69
  14	  72
  14	  73
  14	  75
  14	  76
  14	  81
  14	  82
  14	  85
  14	  86
  14	  88
  14	  92
  14	  93
  14	  94
  14	  95
  14	  98
  14	 100
  14	 102
  14	 103
  14	 105
  14	 107
  14	 108
  14	 109
  14	 112
  14	 114
  14	 115
  14	 116
  14	 118
  14	 119
  15	  16
  15	  19
  15	  20
  15	  21
  15	  23
  15	  25
  15	  26
  15	  27
  15	  32
  15	  33
  15	  36
  15	  37
  15	  38
  15	  44
  15	  45
  15	  46
  15	  50
  15	  51
  15	  52
  15	  53
  15	  56
  15	  57
  15	  60
  15	  61
  15	  63
  15	  64
  15	  65
  15	  67
  15	  69
  15	  70
  15	  71
  15	  73
  15	  75
  15	  77
  15	  81
  15	  82
  15	  83
  15	  84
  15	  93
  15	  94
  15	  95
  15	  96
  15	  97
  15	 102
  15	 104
  15	 105
  15	 108
  15	 110
  16	  18
  16	  19
  16	  22
  16	  26
  16	  28
  16	  29
  16	  31
  16	  32
  16	  39
  16	  44
  16	  46
  16	  49
  16	  51
  16	  54
  16	  55
  16	  58
  16	  59
  16	  62
  16	  65
  16	  67
  16	  68
  16	  74
  16	  78
  16	  80
  16	  81
  16	  82
  16	  83
  16	  85
  16	  87
  16	  88
  16	  89
  16	  90
  16	  92
  16	  97
  16	  99
  16	 101
  16	 107
  16	 108
  16	 112
  16	 113
  16	 115
  16	 116
  16	 117
  17	  21
  17	  22
  17	  26
  17	  27
  17	  35
  17	  36
  17	  37
  17	  40
  17	  52
  17	  53
  17	  57
  17	  58
  17	  59
  17	  61
  17	  63
  17	  64
  17	  68
  17	  69
  17	  71
  17	  73
  17	  76
  17	  77
  17	  81
  17	  84
  17	  85
  17	  91
  17	  93
  17	  94
  17	  99
  17	 100
  17	 102
  17	 110
  17	 111
  17	 113
  17	 116
  17	 117
  17	 118
  18	  19
  18	  20
  18	  21
  18	  26
  18	  27
  18	  30
  18	  35
  18	  36
  18	  41
  18	  42
  18	  43
  18	  44
  18	  46
  18	  47
  18	  55
  18	  57
  18	  59
  18	  61
  18	  63
  18	  64
  18	  68
  18	  70
  18	  71
  18	  74
  18	  75
  18	  79
  18	  81
  18	  82
  18	  88
  18	  89
  18	  94
  18	  96
  18	  97
  18	  98
  18	  99
  18	 100
  18	 101
  18	 102
  18	 104
  18	 107
  18	 108
  18	 109
  18	 110
  18	 111
  18	 112
  18	 113
  19	  20
  19	  22
  19	  23
  19	  25
  19	  32
  19	  33
  19	  36
  19	  38
  19	  42
  19	  44
  19	  45
  19	  46
  19	  49
  19	  50
  19	  52
  19	  53
  19	  59
  19	  60
  19	  61
  19	  63
  19	  65
  19	  68
  19	  70
  19	  71
  19	  73
  19	  77
  19	  78
  19	  81
  19	  82
  19	  83
  19	  84
  19	  86
  19	  87
  19	  90
  19	  91
  19	  92
  19	  95
  19	  96
  19	  98
  19	  99
  19	 102
  19	 103
  19	 115
  19	 116
  19	 117
  19	 118
  19	 119
  20	  22
  20	  31
  20	  33
  20	  35
  20	  39
  20	  40
  20	  41
  20	  42
  20	  43
  20	  44
  20	  45
  20	  47
  20	  50
  20	  54
  20	  58
  20	  60
  20	  61
  20	  62
  20	  64
  20	  65
  20	  67
  20	  71
  20	  72
  20	  73
  20	  75
  20	  76
  20	  81
  20	  84
  20	  88
  20	  94
  20	 100
  20	 103
  20	 105
  20	 106
  20	 108
  20	 111
  20	 116
  21	  24
  21	  25
  21	  26
  21	  27
  21	  30
  21	  36
  21	  37
  21	  38
  21	  40
  21	  41
  21	  43
  21	  48
  21	  50
  21	  51
  21	  52
  21	  58
  21	  59
  21	  67
  21	  69
  21	  70
  21	  71
  21	  72
  21	  73
  21	  74
  21	  77
  21	  78
  21	  83
  21	  84
  21	  85
  21	  89
  21	  92
  21	  93
  21	  98
  21	  99
  21	 100
  21	 104
  21	 105
  21	 106
  21	 108
  21	 110
  21	 111
  21	 114
  21	 117
  22	  25
  22	  27
  22	  28
  22	  31
  22	  36
  22	  37
  22	  38
  22	  40
  22	  42
  22	  43
  22	  44
  22	  47
  22	  48
  22	  50
  22	  52
  22	  54
  22	  57
  22	  58
  22	  60
  22	  62
  22	  70
  22	  72
  22	  73
  22	  75
  22	  76
  22	  79
  22	  80
  22	  81
  22	  82
  22	  86
  22	  89
  22	  90
  22	  91
  22	 100
  22	 101
  22	 107
  22	 109
  22	 110
  22	 112
  22	 113
  22	 114
  22	 116
  22	 117
  22	 119
  23	  26
  23	  31
  23	  32
  23	  33
  23	  34
  23	  36
  23	  41
  23	  46
  23	  47
  23	  48
  23	  49
  23	  52
  23	  54
  23	  57
  23	  58
  23	  60
  23	  61
  23	  62
  23	  63
  23	  66
  23	  68
  23	  70
  23	  72
  23	  74
  23	  76
  23	  80
  23	  81
  23	  82
  23	  85
  23	  87
  23	  92
  23	  96
  23	  99
  23	 100
  23	 101
  23	 103
  23	 106
  23	 109
  23	 113
  23	 114
  23	 115
  23	 119
  24	  26
  24	  27
  24	  31
  24	  33
  24	  36
  24	  37
  24	  38
  24	  40
  24	  41
  24	  45
  24	  46
  24	  47
  24	  48
  24	  49
  24	  51
  24	  52
  24	  55
  24	  56
  24	  58
  24	  59
  24	  61
  24	  62
  24	  63
  24	  64
  24	  67
  24	  68
  24	  69
  24	  71
  24	  79
  24	  83
  24	  84
  24	  87
  24	  88
  24	  89
  24	  91
  24	  92
  24	  95
  24	  96
  24	  98
  24	 100
  24	 103
  24	 106
  24	 107
  24	 108
  24	 109
  24	 110
  24	 112
  24	 113
  24	 114
  24	 117
  24	 118
  25	  30
  25	  34
  25	  35
  25	  36
  25	  37
  25	  42
  25	  44
  25	  46
  25	  48
  25	  53
  25	  54
  25	  55
  25	  56
  25	  57
  25	  58
  25	  59
  25	  60
  25	  62
  25	  66
  25	  67
  25	  71
  25	  77
  25	  78
  25	  79
  25	  86
  25	  89
  25	  90
  25	  91
  25	  95
  25	  99
  25	 100
  25	 101
  25	 103
  25	 116
  25	 118
  26	  33
  26	  34
  26	  35
  26	  37
  26	  39
  26	  40
  26	  41
  26	  43
  26	  44
  26	  45
  26	  46
  26	  47
  26	  50
  26	  51
  26	  61
  26	  66
  26	  67
  26	  68
  26	  71
  26	  72
  26	  74
  26	  78
  26	  82
  26	  85
  26	  88
  26	  89
  26	  94
  26	  95
  26	  97
  26	 106
  26	 109
  26	 111
  26	 114
  26	 115
  26	 119
  27	  28
  27	  35
  27	  36
  27	  38
  27	  41
  27	  43
  27	  57
  27	  60
  27	  63
  27	  64
  27	  67
  27	  68
  27	  71
  27	  73
  27	  75
  27	  76
  27	  80
  27	  81
  27	  82
  27	  84
  27	  86
  27	  87
  27	  88
  27	  91
  27	  93
  27	  94
  27	  95
  27	  96
  27	 101
  27	 104
  27	 108
  27	 109
  27	 111
  27	 112
  27	 114
  27	 118
  28	  30
  28	  33
  28	  34
  28	  36
  28	  38
  28	  40
  28	  42
  28	  44
  28	  45
  28	  54
  28	  59
  28	  61
  28	  62
  28	  63
  28	  65
  28	  66
  28	  69
  28	  70
  28	  71
  28	  74
  28	  75
  28	  76
  28	  77
  28	  80
  28	  81
  28	  86
  28	  88
  28	  90
  28	  93
  28	  94
  28	  97
  28	 101
  28	 102
  28	 103
  28	 106
  28	 107
  28	 109
  28	 110
  28	 112
  28	 114
  28	 116
  29	  33
  29	  35
  29	  39
  29	  43
  29	  47
  29	  49
  29	  51
  29	  62
  29	  64
  29	  65
  29	  66
  29	  67
  29	  68
  29	  69
  29	  70
  29	  71
  29	  74
  29	  77
  29	  79
  29	  80
  29	  82
  29	  89
  29	  90
  29	  92
  29	  96
  29	  98
  29	 103
  29	 106
  29	 109
  29	 111
  29	 115
  29	 116
  29	 117
  29	 118
  30	  31
  30	  32
  30	  33
  30	  39
  30	  41
  30	  43
  30	  44
  30	  46
  30	  49
  30	  50
  30	  51
  30	  53
  30	  57
  30	  58
  30	  62
  30	  63
  30	  65
  30	  68
  30	  73
  30	  76
  30	  79
  30	  81
  30	  83
  30	  84
  30	  86
  30	  91
  30	  96
  30	  97
  30	 103
  30	 108
  30	 111
  30	 112
  30	 114
  30	 115
  30	 119
  31	  36
  31	  37
  31	  41
  31	  44
  31	  47
  31	  48
  31	  50
  31	  54
  31	  55
  31	  62
  31	  65
  31	  66
  31	  68
  31	  69
  31	  70
  31	  73
  31	  74
  31	  76
  31	  77
  31	  78
  31	  80
  31	  83
  31	  84
  31	  87
  31	  88
  31	  95
  31	  96
  31	  99
  31	 103
  31	 105
  31	 106
  31	 109
  31	 111
  31	 112
  31	 115
  31	 116
  32	  34
  32	  35
  32	  42
  32	  43
  32	  46
  32	  47
  32	  48
  32	  52
  32	  53
  32	  54
  32	  57
  32	  58
  32	  59
  32	  67
  32	  68
  32	  69
  32	  70
  32	  71
  32	  72
  32	  73
  32	  80
  32	  81
  32	  83
  32	  86
  32	  88
  32	  92
  32	  94
  32	 100
  32	 101
  32	 108
  32	 111
  32	 114
  32	 116
  32	 118
  33	  35
  33	  37
  33	  44
  33	  45
  33	  46
  33	  48
  33	  49
  33	  50
  33	  54
  33	  55
  33	  56
  33	  59
  33	  60
  33	  62
  33	  64
  33	  65
  33	  67
  33	  68
  33	  69
  33	  71
  33	  72
  33	  75
  33	  77
  33	  78
  33	  79
  33	  80
  33	  81
  33	  84
  33	  86
  33	  87
  33	  97
  33	  98
  33	  99
  33	 101
  33	 102
  33	 103
  33	 107
  33	 114
  34	  36
  34	  40
  34	  41
  34	  42
  34	  46
  34	  53
  34	  56
  34	  58
  34	  59
  34	  63
  34	  67
  34	  71
  34	  73
  34	  74
  34	  75
  34	  83
  34	  87
  34	  89
  34	  90
  34	  91
  34	  92
  34	  93
  34	  94
  34	  95
  34	  97
  34	 102
  34	 103
  34	 110
  34	 111
  34	 115
  34	 117
  34	 118
  35	  36
  35	  38
  35	  39
  35	  42
  35	  46
  35	  48
  35	  52
  35	  54
  35	  55
  35	  56
  35	  58
  35	  61
  35	  64
  35	  66
  35	  67
  35	  68
  35	  69
  35	  70
  35	  76
  35	  77
  35	  79
  35	  84
  35	  87
  35	  89
  35	  94
  35	  96
  35	  98
  35	  99
  35	 100
  35	 102
  35	 104
  35	 105
  35	 106
  35	 108
  35	 110
  35	 111
  35	 114
  35	 115
  35	 118
  36	  37
  36	  38
  36	  43
  36	  47
  36	  48
  36	  49
  36	  50
  36	  51
  36	  52
  36	  54
  36	  55
  36	  58
  36	  59
  36	  60
  36	  62
  36	  65
  36	  68
  36	  70
  36	  71
  36	  73
  36	  74
  36	  75
  36	  77
  36	  81
  36	  82
  36	  84
  36	  85
  36	  86
  36	  87
  36	  88
  36	  94
  36	  97
  36	  98
  36	 104
  36	 106
  36	 111
  36	 118
  37	  38
  37	  41
  37	  42
  37	  44
  37	  45
  37	  48
  37	  51
  37	  52
  37	  59
  37	  68
  37	  69
  37	  73
  37	  75
  37	  78
  37	  80
  37	  87
  37	  92
  37	  96
  37	  98
  37	 101
  37	 102
  37	 105
  37	 106
  37	 107
  37	 108
  37	 110
  37	 111
  37	 112
  37	 113
  37	 117
  38	  40
  38	  42
  38	  44
  38	  46
  38	  48
  38	  53
  38	  56
  38	  59
  38	  61
  38	  62
  38	  63
  38	  64
  38	  67
  38	  71
  38	  72
  38	  73
  38	  75
  38	  78
  38	  79
  38	  81
  38	  82
  38	  85
  38	  87
  38	  88
  38	  89
  38	  92
  38	  97
  38	 100
  38	 105
  38	 106
  38	 108
  38	 110
  38	 115
  38	 117
  39	  40
  39	  41
  39	  43
  39	  47
  39	  49
  39	  51
  39	  53
  39	  54
  39	  57
  39	  58
  39	  65
  39	  68
  39	  72
  39	  74
  39	  75
  39	  76
  39	  78
  39	  82
  39	  88
  39	  89
  39	  93
  39	  96
  39	  97
  39	  98
  39	 102
  39	 105
  39	 106
  39	 110
  39	 112
  39	 114
  39	 115
  39	 118
  39	 119
  40	  41
  40	  45
  40	  46
  40	  50
  40	  51
  40	  52
  40	  57
  40	  59
  40	  64
  40	  66
  40	  68
  40	  70
  40	  75
  40	  80
  40	  81
  40	  82
  40	  85
  40	  88
  40	  91
  40	  93
  40	  95
  40	  96
  40	 100
  40	 101
  40	 104
  40	 106
  40	 109
  40	 110
  40	 113
  40	 116
  40	 117
  41	  43
  41	  44
  41	  46
  41	  49
  41	  51
  41	  56
  41	  60
  41	  62
  41	  64
  41	  67
  41	  68
  41	  70
  41	  73
  41	  74
  41	  75
  41	  77
  41	  81
  41	  91
  41	  93
  41	  94
  41	  95
  41	  96
  41	  97
  41	  98
  41	  99
  41	 101
  41	 102
  41	 103
  41	 104
  41	 108
  41	 118
  41	 119
  42	  45
  42	  48
  42	  52
  42	  55
  42	  56
  42	  60
  42	  61
  42	  62
  42	  65
  42	  66
  42	  68
  42	  73
  42	  74
  42	  75
  42	  77
  42	  79
  42	  83
  42	  90
  42	  92
  42	  93
  42	  94
  42	 101
  42	 103
  42	 106
  42	 108
  42	 115
  42	 116
  43	  45
  43	  47
  43	  49
  43	  50
  43	  51
  43	  53
  43	  55
  43	  63
  43	  64
  43	  69
  43	  71
  43	  72
  43	  75
  43	  78
  43	  80
  43	  81
  43	  84
  43	  85
  43	  88
  43	  91
  43	  93
  43	  94
  43	  97
  43	  99
  43	 100
  43	 103
  43	 105
  43	 106
  43	 111
  43	 113
  43	 115
  43	 119
  44	  46
  44	  47
  44	  48
  44	  50
  44	  51
  44	  52
  44	  55
  44	  60
  44	  62
  44	  63
  44	  66
  44	  67
  44	  71
  44	  74
  44	  78
  44	  81
  44	  89
  44	  90
  44	  93
  44	  94
  44	  95
  44	  96
  44	 104
  44	 109
  44	 114
  44	 115
  45	  50
  45	  51
  45	  53
  45	  55
  45	  59
  45	  61
  45	  62
  45	  63
  45	  64
  45	  69
  45	  70
  45	  71
  45	  73
  45	  75
  45	  76
  45	  78
  45	  80
  45	  81
  45	  83
  45	  84
  45	  85
  45	  86
  45	  89
  45	  91
  45	  95
  45	  98
  45	  99
  45	 101
  45	 102
  45	 103
  45	 105
  45	 114
  45	 115
  45	 116
  45	 117
  45	 118
  46	  47
  46	  49
  46	  53
  46	  59
  46	  60
  46	  62
  46	  68
  46	  70
  46	  71
  46	  74
  46	  75
  46	  77
  46	  79
  46	  83
  46	  89
  46	  90
  46	  93
  46	  95
  46	  96
  46	  97
  46	 102
  46	 105
  46	 110
  46	 112
  46	 114
  46	 115
  46	 116
  47	  48
  47	  52
  47	  54
  47	  55
  47	  56
  47	  59
  47	  61
  47	  62
  47	  64
  47	  67
  47	  69
  47	  72
  47	  73
  47	  75
  47	  76
  47	  78
  47	  79
  47	  80
  47	  81
  47	  82
  47	  85
  47	  87
  47	  90
  47	  91
  47	  95
  47	 100
  47	 101
  47	 103
  47	 105
  47	 106
  47	 109
  47	 111
  47	 113
  47	 117
  48	  55
  48	  58
  48	  60
  48	  64
  48	  65
  48	  73
  48	  76
  48	  78
  48	  79
  48	  80
  48	  81
  48	  83
  48	  84
  48	  87
  48	  88
  48	  90
  48	  91
  48	  92
  48	  93
  48	  96
  48	  99
  48	 101
  48	 104
  48	 107
  48	 108
  48	 109
  48	 110
  48	 112
  48	 118
  49	  50
  49	  51
  49	  54
  49	  58
  49	  59
  49	  62
  49	  72
  49	  76
  49	  79
  49	  82
  49	  84
  49	  91
  49	  93
  49	  94
  49	  96
  49	  99
  49	 101
  49	 105
  49	 119
  50	  52
  50	  53
  50	  54
  50	  55
  50	  57
  50	  58
  50	  59
  50	  62
  50	  66
  50	  69
  50	  71
  50	  74
  50	  77
  50	  79
  50	  80
  50	  92
  50	  99
  50	 100
  50	 105
  50	 106
  50	 110
  50	 114
  50	 116
  50	 119
  51	  54
  51	  56
  51	  57
  51	  58
  51	  59
  51	  60
  51	  62
  51	  64
  51	  65
  51	  66
  51	  67
  51	  69
  51	  70
  51	  73
  51	  74
  51	  79
  51	  81
  51	  83
  51	  85
  51	  88
  51	  89
  51	  91
  51	  94
  51	 101
  51	 104
  51	 105
  51	 107
  51	 110
  51	 111
  51	 112
  51	 113
  51	 115
  51	 116
  52	  53
  52	  55
  52	  57
  52	  59
  52	  61
  52	  62
  52	  63
  52	  70
  52	  71
  52	  83
  52	  85
  52	  88
  52	  91
  52	  95
  52	  96
  52	  98
  52	 100
  52	 104
  52	 105
  52	 106
  52	 109
  52	 110
  52	 116
  52	 117
  53	  54
  53	  55
  53	  72
  53	  75
  53	  77
  53	  78
  53	  84
  53	  85
  53	  88
  53	  92
  53	  95
  53	  96
  53	  97
  53	  98
  53	 100
  53	 101
  53	 102
  53	 103
  53	 108
  53	 109
  53	 110
  53	 113
  53	 114
  53	 116
  54	  55
  54	  56
  54	  57
  54	  63
  54	  64
  54	  67
  54	  73
  54	  79
  54	  81
  54	  82
  54	  83
  54	  88
  54	  94
  54	  98
  54	  99
  54	 104
  54	 106
  54	 107
  54	 110
  54	 113
  54	 115
  54	 116
  54	 119
  55	  61
  55	  63
  55	  66
  55	  67
  55	  69
  55	  71
  55	  75
  55	  79
  55	  82
  55	  83
  55	  84
  55	  88
  55	  89
  55	  92
  55	  93
  55	  97
  55	  99
  55	 102
  55	 105
  55	 106
  55	 108
  55	 110
  55	 113
  55	 114
  55	 115
  56	  57
  56	  58
  56	  61
  56	  63
  56	  68
  56	  69
  56	  71
  56	  72
  56	  78
  56	  79
  56	  80
  56	  82
  56	  85
  56	  86
  56	  87
  56	  93
  56	  98
  56	 102
  56	 103
  56	 104
  56	 107
  56	 108
  56	 109
  56	 112
  56	 116
  56	 117
  56	 118
  56	 119
  57	  58
  57	  63
  57	  64
  57	  65
  57	  68
  57	  69
  57	  70
  57	  72
  57	  73
  57	  74
  57	  79
  57	  80
  57	  85
  57	  87
  57	  91
  57	  97
  57	  98
  57	  99
  57	 105
  57	 107
  57	 111
  57	 112
  57	 114
  57	 115
  57	 118
  57	 119
  58	  59
  58	  61
  58	  65
  58	  66
  58	  67
  58	  70
  58	  71
  58	  72
  58	  76
  58	  78
  58	  80
  58	  83
  58	  85
  58	  88
  58	  96
  58	 110
  58	 114
  58	 116
  59	  66
  59	  67
  59	  73
  59	  75
  59	  77
  59	  78
  59	  83
  59	  84
  59	  86
  59	  87
  59	  91
  59	  93
  59	  95
  59	 103
  59	 109
  59	 115
  59	 117
  59	 119
  60	  66
  60	  67
  60	  69
  60	  71
  60	  74
  60	  75
  60	  76
  60	  78
  60	  79
  60	  81
  60	  84
  60	  86
  60	  88
  60	  89
  60	  91
  60	  92
  60	  93
  60	  97
  60	  99
  60	 100
  60	 102
  60	 103
  60	 104
  60	 105
  60	 112
  60	 115
  61	  62
  61	  63
  61	  70
  61	  72
  61	  74
  61	  78
  61	  79
  61	  80
  61	  82
  61	  83
  61	  87
  61	  91
  61	  93
  61	  94
  61	  96
  61	  97
  61	  99
  61	 100
  61	 104
  61	 106
  61	 110
  61	 111
  61	 115
  61	 117
  62	  63
  62	  67
  62	  69
  62	  74
  62	  78
  62	  79
  62	  81
  62	  82
  62	  83
  62	  84
  62	  87
  62	  89
  62	  91
  62	  92
  62	  94
  62	  97
  62	  99
  62	 106
  62	 108
  62	 112
  62	 113
  62	 114
  62	 115
  62	 116
  63	  65
  63	  67
  63	  68
  63	  69
  63	  70
  63	  72
  63	  74
  63	  75
  63	  79
  63	  83
  63	  89
  63	  93
  63	  96
  63	  98
  63	  99
  63	 101
  63	 108
  63	 110
  63	 113
  63	 118
  64	  66
  64	  68
  64	  70
  64	  71
  64	  72
  64	  77
  64	  81
  64	  82
  64	  85
  64	  89
  64	  91
  64	  93
  64	 101
  64	 102
  64	 103
  64	 106
  64	 108
  64	 109
  64	 110
  64	 111
  64	 112
  64	 114
  64	 116
  64	 119
  65	  68
  65	  69
  65	  70
  65	  71
  65	  74
  65	  83
  65	  84
  65	  85
  65	  86
  65	  88
  65	  90
  65	  96
  65	 100
  65	 102
  65	 106
  65	 112
  65	 113
  65	 118
  66	  67
  66	  68
  66	  69
  66	  73
  66	  76
  66	  82
  66	  83
  66	  86
  66	  91
  66	  92
  66	  93
  66	  96
  66	  98
  66	 105
  66	 111
  66	 112
  66	 114
  66	 115
  67	  69
  67	  70
  67	  73
  67	  74
  67	  75
  67	  76
  67	  84
  67	  85
  67	  86
  67	  90
  67	  91
  67	  92
  67	  93
  67	  99
  67	 100
  67	 101
  67	 102
  67	 103
  67	 104
  67	 105
  67	 106
  67	 108
  67	 109
  67	 110
  67	 111
  67	 114
  67	 116
  68	  69
  68	  71
  68	  74
  68	  75
  68	  76
  68	  78
  68	  80
  68	  81
  68	  82
  68	  86
  68	  88
  68	  90
  68	  95
  68	  96
  68	  97
  68	  99
  68	 100
  68	 104
  68	 107
  68	 109
  68	 110
  68	 111
  68	 113
  68	 114
  68	 116
  68	 118
  69	  71
  69	  76
  69	  77
  69	  81
  69	  82
  69	  88
  69	  92
  69	  97
  69	  98
  69	  99
  69	 109
  69	 113
  69	 114
  69	 119
  70	  74
  70	  75
  70	  76
  70	  78
  70	  79
  70	  84
  70	  85
  70	  86
  70	  91
  70	  94
  70	  97
  70	  99
  70	 100
  70	 103
  70	 104
  70	 107
  70	 109
  70	 115
  70	 117
  71	  72
  71	  74
  71	  75
  71	  76
  71	  80
  71	  83
  71	  91
  71	  92
  71	  93
  71	  94
  71	  95
  71	  98
  71	 101
  71	 108
  71	 110
  71	 111
  71	 112
  71	 115
  72	  73
  72	  77
  72	  80
  72	  82
  72	  85
  72	  87
  72	  90
  72	  94
  72	  96
  72	  97
  72	  99
  72	 101
  72	 103
  72	 104
  72	 106
  72	 107
  72	 111
  72	 115
  72	 119
  73	  76
  73	  81
  73	  83
  73	  85
  73	  87
  73	  89
  73	  91
  73	  92
  73	  93
  73	  94
  73	  97
  73	 101
  73	 103
  73	 108
  73	 109
  73	 111
  73	 112
  73	 113
  73	 115
  73	 116
  73	 118
  73	 119
  74	  82
  74	  83
  74	  86
  74	  89
  74	  90
  74	  91
  74	  94
  74	  95
  74	  98
  74	  99
  74	 101
  74	 105
  74	 106
  74	 109
  74	 110
  74	 114
  74	 115
  74	 117
  74	 119
  75	  76
  75	  77
  75	  78
  75	  79
  75	  83
  75	  84
  75	  85
  75	  86
  75	  92
  75	  94
  75	 103
  75	 104
  75	 105
  75	 107
  75	 108
  75	 109
  75	 113
  75	 114
  75	 115
  75	 117
  76	  79
  76	  80
  76	  81
  76	  85
  76	  86
  76	  88
  76	  89
  76	  92
  76	  98
  76	 107
  76	 109
  76	 117
  77	  79
  77	  80
  77	  81
  77	  83
  77	  90
  77	  92
  77	  94
  77	  97
  77	  99
  77	 101
  77	 104
  77	 106
  77	 109
  77	 110
  77	 113
  77	 117
  78	  79
  78	  82
  78	  84
  78	  86
  78	  89
  78	  92
  78	  94
  78	  97
  78	  98
  78	  99
  78	 100
  78	 103
  78	 107
  78	 111
  78	 114
  78	 118
  78	 119
  79	  80
  79	  82
  79	  86
  79	  89
  79	  92
  79	  95
  79	  96
  79	 101
  79	 102
  79	 103
  79	 105
  79	 106
  79	 109
  79	 114
  79	 115
  79	 117
  80	  81
  80	  83
  80	  84
  80	  86
  80	  88
  80	  89
  80	  92
  80	  93
  80	  94
  80	  95
  80	 101
  80	 103
  80	 104
  80	 107
  80	 112
  80	 113
  80	 117
  81	  83
  81	  90
  81	  91
  81	  94
  81	  97
  81	  98
  81	 100
  81	 102
  81	 108
  81	 109
  81	 113
  81	 114
  81	 116
  81	 117
  82	  83
  82	  84
  82	  86
  82	  87
  82	  88
  82	  89
  82	  90
  82	  92
  82	  94
  82	  95
  82	  97
  82	 100
  82	 101
  82	 103
  82	 106
  82	 114
  82	 116
  82	 118
  83	  86
  83	  87
  83	  88
  83	  91
  83	  92
  83	  94
  83	  95
  83	  97
  83	 101
  83	 102
  83	 105
  83	 106
  83	 107
  83	 110
  83	 113
  83	 115
  83	 118
  84	  88
  84	  89
  84	  90
  84	  95
  84	  97
  84	  99
  84	 101
  84	 102
  84	 106
  84	 108
  84	 111
  84	 113
  84	 116
  84	 117
  84	 119
  85	  92
  85	  95
  85	  96
  85	  99
  85	 100
  85	 103
  85	 104
  85	 105
  85	 106
  85	 107
  85	 108
  85	 109
  85	 112
  85	 113
  86	  88
  86	  92
  86	  93
  86	  96
  86	  97
  86	 100
  86	 101
  86	 102
  86	 104
  86	 105
  86	 110
  86	 112
  86	 113
  86	 114
  86	 118
  86	 119
  87	  90
  87	  92
  87	  94
  87	  95
  87	  99
  87	 100
  87	 101
  87	 104
  87	 110
  87	 113
  88	  94
  88	  98
  88	  99
  88	 102
  88	 105
  88	 107
  88	 109
  88	 112
  88	 113
  88	 116
  88	 119
  89	  94
  89	 104
  89	 106
  89	 108
  89	 111
  89	 112
  89	 116
  89	 118
  90	  92
  90	  95
  90	 100
  90	 101
  90	 103
  90	 112
  90	 113
  91	  93
  91	  94
  91	  96
  91	 100
  91	 101
  91	 104
  91	 107
  91	 112
  91	 114
  91	 115
  91	 118
  92	  94
  92	  96
  92	  98
  92	  99
  92	 102
  92	 106
  92	 109
  92	 111
  92	 112
  92	 114
  92	 115
  92	 116
  93	  95
  93	  97
  93	 106
  93	 109
  93	 110
  93	 111
  93	 114
  93	 117
  93	 119
  94	  96
  94	  99
  94	 106
  94	 109
  94	 111
  94	 114
  94	 116
  94	 118
  95	  97
  95	  99
  95	 100
  95	 101
  95	 102
  95	 103
  95	 104
  95	 106
  95	 113
  95	 114
  95	 115
  95	 116
  95	 117
  95	 118
  96	  97
  96	  99
  96	 100
  96	 103
  96	 105
  96	 107
  96	 108
  96	 111
  96	 113
  96	 114
  96	 116
  96	 119
  97	  98
  97	  99
  97	 103
  97	 104
  97	 105
  97	 106
  97	 108
  97	 112
  97	 117
  98	  99
  98	 101
  98	 103
  98	 106
  98	 107
  98	 109
  98	 110
  98	 112
  98	 116
  99	 103
  99	 104
  99	 105
  99	 109
  99	 111
  99	 112
  99	 113
 100	 107
 100	 114
 100	 119
 101	 105
 101	 107
 101	 113
 101	 116
 101	 118
 101	 119
 102	 103
 102	 110
 102	 111
 102	 114
 102	 115
 102	 116
 103	 105
 103	 106
 103	 107
 103	 109
 103	 114
 103	 115
 103	 116
 104	 105
 104	 107
 104	 109
 104	 110
 104	 113
 104	 114
 104	 115
 104	 116
 104	 119
 105	 106
 105	 109
 105	 110
 105	 116
 105	 119
 106	 107
 106	 108
 106	 112
 106	 113
 106	 116
 106	 119
 107	 108
 107	 111
 107	 112
 107	 113
 107	 115
 107	 116
 107	 117
 107	 119
 108	 109
 108	 110
 108	 112
 108	 113
 108	 114
 108	 115
 109	 111
 109	 118
 110	 111
 110	 116
 110	 117
 110	 118
 111	 112
 111	 113
 111	 119
 112	 118
 113	 115
 113	 118
 114	 119
 115	 118
 115	 119
 116	 118
 116	 119
 117	 118
 117	 119
;
